tsp_instances/TSP20/instance105.tsp
NODE_COORD_SECTION
0 48 163
1 90 136
2 175 12
3 74 107
4 53 89
5 193 198
6 117 184
7 188 163
8 180 3
9 17 68
10 175 174
11 6 134
12 176 144
13 171 41
14 2 19
15 124 73
16 130 84
17 129 155
18 45 142
19 4 97
