tsp_instances/TSP20/instance105.opt.tour
TOUR_SECTION
1
2
18
7
11
6
8
13
14
3
9
16
17
4
5
15
10
20
12
19
-1